c
c 2020-04-22T12:22:57.316144
c Raymond Wei
c
p cnf 6 20
c
4 -3 -2 0
4 5 6 0
3 -4 -2 0
1 5 6 0
1 2 -3 0
2 5 -1 0
1 -4 6 0
-6 4 5 0
2 -5 6 0
3 -1 6 0
-3 6 -2 0
4 -3 6 0
3 5 -1 0
-6 -3 -1 0
-4 5 6 0
1 2 5 0
-2 6 -1 0
3 -5 -4 0
2 -4 -3 0
1 2 4 0
%
0
